p edge 57 169
e 1 2
e 1 5
e 1 9
e 1 32
e 1 38
e 1 43
e 1 55
e 2 26
e 3 7
e 3 8
e 3 14
e 3 25
e 3 28
e 3 42
e 3 44
e 3 50
e 3 51
e 4 5
e 4 6
e 4 13
e 4 25
e 4 41
e 4 42
e 5 23
e 5 35
e 6 8
e 6 14
e 6 25
e 6 37
e 7 9
e 7 20
e 7 26
e 7 32
e 7 36
e 7 42
e 7 45
e 7 47
e 7 49
e 7 56
e 8 12
e 8 14
e 8 16
e 8 40
e 9 19
e 9 25
e 10 11
e 10 16
e 10 32
e 10 40
e 10 45
e 11 13
e 11 38
e 11 42
e 11 44
e 11 49
e 11 57
e 12 14
e 12 19
e 12 24
e 12 29
e 12 44
e 12 49
e 13 14
e 13 26
e 13 36
e 13 39
e 13 45
e 14 31
e 14 52
e 14 53
e 15 33
e 15 35
e 15 43
e 15 50
e 15 56
e 16 17
e 16 44
e 16 47
e 17 32
e 17 34
e 18 27
e 18 30
e 18 50
e 19 33
e 19 44
e 19 49
e 20 27
e 20 40
e 20 57
e 21 23
e 21 32
e 21 33
e 21 34
e 21 36
e 21 45
e 21 49
e 21 50
e 22 26
e 22 49
e 23 30
e 23 35
e 23 45
e 24 42
e 24 48
e 25 28
e 25 50
e 25 52
e 26 47
e 27 28
e 27 49
e 27 51
e 27 55
e 28 32
e 28 35
e 28 40
e 28 46
e 28 56
e 29 37
e 29 41
e 29 43
e 29 44
e 29 45
e 29 47
e 29 49
e 29 54
e 30 40
e 30 42
e 30 43
e 30 44
e 30 52
e 30 53
e 31 32
e 31 49
e 31 56
e 32 45
e 33 44
e 33 49
e 33 52
e 34 46
e 34 48
e 34 51
e 34 57
e 35 41
e 35 49
e 35 53
e 36 39
e 36 43
e 36 46
e 36 54
e 37 55
e 38 41
e 38 45
e 39 42
e 39 55
e 40 41
e 40 52
e 41 51
e 43 46
e 43 52
e 46 47
e 46 49
e 46 53
e 47 50
e 47 54
e 48 49
e 50 52
e 51 54
e 53 55
e 53 57
